6524
0 0 0 0 0 1 0 0 0 1 0 0 0 0 0 1 0 1 1 0 0 0 0 0 0 0 1 1 0 1 
18 9 15 5 26 17 26 15 27 29 5 27 26 9 18 18 15 15 18 18 9 26 9 17 17 26 29 18 29 29 5 5 5 26 9 9 9 27 15 18 27 18 27 27 5 26 26 17 17 15 15 9 9 18 18 18 9 17 26 29 5 27 27 29 27 29 27 27 27 29 
